<number of tasks>
58

<cycle time>
92

<task times>
1 10
2 53
3 41
4 36
5 35
6 17
7 34
8 23
9 14
10 52
11 33
12 34
13 12
14 52
15 12
16 33
17 44
18 7
19 15
20 13
21 29
22 37
23 43
24 23
25 24
26 9
27 16
28 12
29 26
30 22
31 51
32 47
33 34
34 23
35 12
36 52
37 12
38 33
39 44
40 7
41 15
42 13
43 29
44 37
45 43
46 23
47 24
48 9
49 16
50 12
51 26
52 12
53 52
54 12
55 33
56 44
57 7
58 15

<precedence relations>
1,9
2,25
3,21
3,22
4,10
5,36
6,23
6,24
7,43
8,44
9,11
11,13
11,14
11,15
12,17
13,17
14,17
15,17
16,18
17,20
18,19
19,23
20,21
20,25
21,26
21,44
22,27
23,31
24,31
25,38
26,29
27,30
28,32
28,33
29,31
30,34
31,36
32,45
33,35
34,36
35,43
36,37
36,38
37,39
37,40
37,41
38,52
39,43
40,43
41,42
42,43
43,45
44,45
45,46
45,48
45,49
46,47
46,50
47,51
48,55
49,58
50,58
51,52
52,53
53,54
54,55
54,56
55,57
56,57
57,58

<setup times forward>
1,3:8
1,4:6
1,5:3
1,7:4
1,8:3
1,9:8
1,10:8
1,12:3
1,16:2
1,18:2
1,19:4
1,22:8
1,23:4
1,27:7
1,30:7
1,32:3
1,33:5
1,34:5
1,35:1
2,3:8
2,4:6
2,5:3
2,7:4
2,8:3
2,9:8
2,10:8
2,11:3
2,12:3
2,14:2
2,15:3
2,16:2
2,18:2
2,19:4
2,21:7
2,22:8
2,23:4
2,25:7
2,26:5
2,27:7
2,29:5
2,30:7
2,31:3
2,32:3
2,33:5
2,34:5
2,35:1
2,36:9
2,37:9
2,39:1
2,40:1
2,41:9
2,42:9
2,43:1
2,44:3
2,45:2
2,46:6
2,47:6
2,48:6
2,49:2
2,50:8
2,51:10
3,1:8
3,2:8
3,4:2
3,5:5
3,6:8
3,7:12
3,8:5
3,11:11
3,12:5
3,13:8
3,14:6
3,15:11
3,16:6
3,17:8
3,18:6
3,19:12
3,20:8
3,21:15
3,23:12
3,24:8
3,25:15
3,28:8
3,32:11
3,33:3
3,35:9
4,1:6
4,2:6
4,3:2
4,5:3
4,6:6
4,7:10
4,8:3
4,9:2
4,10:2
4,11:9
4,12:3
4,13:6
4,14:4
4,15:9
4,16:4
4,17:6
4,18:4
4,19:10
4,20:6
4,21:13
4,22:2
4,23:10
4,24:6
4,25:13
4,26:1
4,27:13
4,28:6
4,29:1
4,30:13
4,31:9
4,32:9
4,33:1
4,34:1
4,35:7
4,36:15
4,37:15
4,38:4
4,39:7
4,40:7
4,41:15
4,42:15
4,43:7
4,44:9
4,45:4
4,49:4
4,50:2
4,51:16
4,52:16
4,53:16
4,54:15
4,55:15
4,56:15
4,57:2
4,58:2
5,1:3
5,2:3
5,3:5
5,4:3
5,6:3
5,7:7
5,9:5
5,10:5
5,11:6
5,13:3
5,14:1
5,15:6
5,16:1
5,17:3
5,18:1
5,19:7
5,20:3
5,21:10
5,22:5
5,23:7
5,24:3
5,25:10
5,26:2
5,27:10
5,28:3
5,29:2
5,30:10
5,31:6
5,32:6
5,33:2
5,34:2
5,35:4
5,36:12
5,44:6
6,3:8
6,4:6
6,5:3
6,7:4
6,8:3
6,9:8
6,10:8
6,11:3
6,12:3
6,14:2
6,15:3
6,16:2
6,18:2
6,19:4
6,21:7
6,22:8
6,23:4
6,25:7
6,26:5
6,27:7
6,29:5
6,30:7
6,32:3
6,33:5
6,34:5
6,35:1
6,44:3
7,1:4
7,2:4
7,3:12
7,4:10
7,5:7
7,6:4
7,8:7
7,9:12
7,10:12
7,11:1
7,12:7
7,13:4
7,14:6
7,15:1
7,16:6
7,17:4
7,18:6
7,20:4
7,21:3
7,22:12
7,24:4
7,25:3
7,26:9
7,27:3
7,28:4
7,29:9
7,30:3
7,31:1
7,32:1
7,33:9
7,34:9
7,35:3
7,36:5
7,37:5
7,38:6
7,39:3
7,40:3
7,41:5
7,42:5
7,43:3
7,44:1
8,1:3
8,2:3
8,3:5
8,4:3
8,6:3
8,7:7
8,9:5
8,10:5
8,11:6
8,13:3
8,14:1
8,15:6
8,16:1
8,17:3
8,18:1
8,19:7
8,20:3
8,21:10
8,22:5
8,23:7
8,24:3
8,25:10
8,26:2
8,27:10
8,28:3
8,29:2
8,30:10
8,31:6
8,32:6
8,33:2
8,34:2
8,35:4
8,36:12
8,37:12
8,38:1
8,39:4
8,40:4
8,41:12
8,42:12
8,43:4
8,44:6
9,2:8
9,4:2
9,5:5
9,6:8
9,7:12
9,8:5
9,11:11
9,12:5
9,16:6
9,18:6
9,19:12
9,23:12
9,24:8
9,27:15
9,28:8
9,30:15
9,32:11
9,33:3
9,34:3
9,35:9
10,1:8
10,2:8
10,5:5
10,6:8
10,7:12
10,8:5
10,11:11
10,12:5
10,13:8
10,14:6
10,15:11
10,16:6
10,17:8
10,18:6
10,19:12
10,20:8
10,21:15
10,23:12
10,24:8
10,25:15
10,26:3
10,27:15
10,28:8
10,29:3
10,30:15
10,31:11
10,32:11
10,33:3
10,34:3
10,35:9
10,36:17
10,37:17
10,38:6
10,39:9
10,40:9
10,41:17
10,42:17
10,43:9
10,44:11
10,45:6
10,46:2
10,47:2
10,48:2
10,49:6
10,51:18
10,52:18
10,53:18
10,54:17
10,55:17
10,56:17
11,2:3
11,3:11
11,4:9
11,5:6
11,6:3
11,7:1
11,8:6
11,10:11
11,12:6
11,13:3
11,14:5
11,16:5
11,18:5
11,19:1
11,22:11
11,23:1
11,24:3
11,27:4
11,28:3
11,30:4
11,33:8
11,34:8
11,35:2
12,1:3
12,2:3
12,3:5
12,4:3
12,6:3
12,7:7
12,9:5
12,10:5
12,11:6
12,13:3
12,14:1
12,15:6
12,16:1
12,17:3
12,18:1
12,19:7
12,22:5
12,23:7
12,24:3
12,27:10
12,28:3
12,30:10
12,32:6
12,33:2
12,34:2
12,35:4
13,3:8
13,4:6
13,5:3
13,7:4
13,8:3
13,10:8
13,12:3
13,14:2
13,15:3
13,16:2
13,18:2
13,19:4
13,22:8
13,23:4
13,27:7
13,30:7
13,32:3
13,33:5
13,34:5
13,35:1
14,2:2
14,3:6
14,4:4
14,5:1
14,6:2
14,7:6
14,8:1
14,10:6
14,12:1
14,13:2
14,15:5
14,17:2
14,19:6
14,22:6
14,23:6
14,24:2
14,27:9
14,28:2
14,30:9
14,32:5
14,33:3
14,34:3
14,35:3
15,2:3
15,3:11
15,4:9
15,5:6
15,6:3
15,7:1
15,8:6
15,10:11
15,12:6
15,13:3
15,14:5
15,16:5
15,17:3
15,18:5
15,19:1
15,22:11
15,23:1
15,24:3
15,27:4
15,28:3
15,30:4
15,33:8
15,34:8
15,35:2
16,1:2
16,2:2
16,3:6
16,4:4
16,5:1
16,6:2
16,7:6
16,8:1
16,9:6
16,10:6
16,11:5
16,12:1
16,13:2
16,15:5
16,17:2
16,20:2
16,21:9
16,22:6
16,24:2
16,25:9
16,26:3
16,27:9
16,28:2
16,29:3
16,30:9
16,32:5
16,33:3
16,34:3
16,35:3
16,44:5
17,3:8
17,4:6
17,5:3
17,7:4
17,8:3
17,10:8
17,16:2
17,18:2
17,19:4
17,22:8
17,23:4
17,27:7
17,30:7
17,32:3
17,33:5
17,34:5
17,35:1
18,1:2
18,2:2
18,3:6
18,4:4
18,5:1
18,6:2
18,7:6
18,8:1
18,9:6
18,10:6
18,11:5
18,12:1
18,13:2
18,15:5
18,17:2
18,19:6
18,20:2
18,21:9
18,22:6
18,24:2
18,25:9
18,26:3
18,27:9
18,28:2
18,29:3
18,30:9
18,32:5
18,33:3
18,34:3
18,35:3
18,44:5
19,1:4
19,2:4
19,3:12
19,4:10
19,5:7
19,6:4
19,8:7
19,9:12
19,10:12
19,11:1
19,12:7
19,13:4
19,14:6
19,15:1
19,17:4
19,20:4
19,21:3
19,22:12
19,24:4
19,25:3
19,26:9
19,27:3
19,28:4
19,29:9
19,30:3
19,32:1
19,33:9
19,34:9
19,35:3
19,44:1
20,3:8
20,4:6
20,5:3
20,7:4
20,8:3
20,10:8
20,16:2
20,18:2
20,19:4
20,21:7
20,22:8
20,23:4
20,25:7
20,27:7
20,30:7
20,32:3
20,33:5
20,34:5
20,35:1
21,2:7
21,4:13
21,5:10
21,6:7
21,7:3
21,8:10
21,10:15
21,16:9
21,18:9
21,19:3
21,22:15
21,23:3
21,24:7
21,26:12
21,28:7
21,32:4
21,33:12
21,34:12
21,35:6
21,44:4
22,1:8
22,2:8
22,4:2
22,5:5
22,6:8
22,7:12
22,8:5
22,11:11
22,12:5
22,13:8
22,14:6
22,15:11
22,16:6
22,17:8
22,18:6
22,19:12
22,20:8
22,21:15
22,23:12
22,24:8
22,25:15
22,26:3
22,27:15
22,28:8
22,29:3
22,31:11
22,32:11
22,33:3
22,35:9
22,44:11
23,1:4
23,2:4
23,3:12
23,4:10
23,5:7
23,8:7
23,9:12
23,10:12
23,11:1
23,12:7
23,13:4
23,14:6
23,15:1
23,17:4
23,20:4
23,21:3
23,22:12
23,24:4
23,25:3
23,26:9
23,27:3
23,28:4
23,29:9
23,30:3
23,31:1
23,32:1
23,33:9
23,34:9
23,35:3
23,44:1
24,3:8
24,4:6
24,5:3
24,7:4
24,8:3
24,9:8
24,10:8
24,11:3
24,12:3
24,14:2
24,15:3
24,16:2
24,18:2
24,19:4
24,21:7
24,22:8
24,23:4
24,25:7
24,26:5
24,27:7
24,29:5
24,30:7
24,31:3
24,32:3
24,33:5
24,34:5
24,35:1
24,44:3
25,3:15
25,4:13
25,5:10
25,6:7
25,7:3
25,8:10
25,10:15
25,16:9
25,18:9
25,19:3
25,22:15
25,23:3
25,24:7
25,26:12
25,28:7
25,29:12
25,31:4
25,32:4
25,33:12
25,34:12
25,35:6
25,36:2
25,37:2
25,38:9
25,39:6
25,40:6
25,41:2
25,42:2
25,43:6
25,44:4
25,45:9
25,46:13
25,47:13
25,48:13
25,49:9
25,50:15
25,51:3
26,2:5
26,4:1
26,5:2
26,6:5
26,7:9
26,8:2
26,10:3
26,16:3
26,18:3
26,19:9
26,22:3
26,23:9
26,24:5
26,25:12
26,27:12
26,28:5
26,30:12
26,32:8
26,35:6
26,44:8
27,1:7
27,2:7
27,4:13
27,5:10
27,6:7
27,7:3
27,8:10
27,9:15
27,10:15
27,11:4
27,12:10
27,13:7
27,14:9
27,15:4
27,16:9
27,17:7
27,18:9
27,19:3
27,20:7
27,23:3
27,24:7
27,26:12
27,28:7
27,29:12
27,31:4
27,32:4
27,33:12
27,35:6
27,44:4
28,3:8
28,4:6
28,5:3
28,7:4
28,8:3
28,9:8
28,10:8
28,11:3
28,12:3
28,14:2
28,15:3
28,16:2
28,18:2
28,19:4
28,21:7
28,22:8
28,23:4
28,25:7
28,26:5
28,27:7
28,29:5
28,30:7
28,31:3
28,32:3
28,33:5
28,34:5
28,36:9
28,37:9
28,38:2
28,39:1
28,40:1
28,41:9
28,42:9
28,44:3
29,2:5
29,4:1
29,5:2
29,6:5
29,7:9
29,8:2
29,10:3
29,16:3
29,18:3
29,19:9
29,22:3
29,23:9
29,24:5
29,25:12
29,27:12
29,28:5
29,30:12
29,31:8
29,32:8
29,35:6
29,44:8
30,1:7
30,2:7
30,4:13
30,5:10
30,6:7
30,7:3
30,8:10
30,9:15
30,10:15
30,11:4
30,12:10
30,13:7
30,14:9
30,15:4
30,16:9
30,17:7
30,18:9
30,19:3
30,20:7
30,23:3
30,24:7
30,26:12
30,28:7
30,29:12
30,31:4
30,32:4
30,33:12
30,34:12
30,35:6
30,44:4
31,2:3
31,4:9
31,5:6
31,7:1
31,8:6
31,10:11
31,22:11
31,25:4
31,27:4
31,28:3
31,30:4
31,33:8
31,34:8
31,35:2
31,36:6
32,1:3
32,2:3
32,3:11
32,4:9
32,5:6
32,6:3
32,7:1
32,8:6
32,9:11
32,10:11
32,12:6
32,13:3
32,14:5
32,16:5
32,17:3
32,18:5
32,19:1
32,20:3
32,21:4
32,22:11
32,23:1
32,24:3
32,25:4
32,26:8
32,27:4
32,29:8
32,30:4
32,33:8
32,34:8
32,35:2
32,36:6
32,37:6
32,38:5
32,39:2
32,40:2
32,41:6
32,42:6
32,43:2
32,45:5
33,1:5
33,2:5
33,3:3
33,4:1
33,5:2
33,6:5
33,7:9
33,8:2
33,9:3
33,10:3
33,11:8
33,12:2
33,13:5
33,14:3
33,15:8
33,16:3
33,17:5
33,18:3
33,19:9
33,20:5
33,21:12
33,22:3
33,23:9
33,24:5
33,25:12
33,27:12
33,30:12
33,31:8
33,32:8
33,35:6
33,36:14
33,37:14
33,38:3
33,39:6
33,40:6
33,41:14
33,42:14
33,44:8
34,1:5
34,2:5
34,4:1
34,5:2
34,6:5
34,7:9
34,8:2
34,9:3
34,10:3
34,11:8
34,12:2
34,13:5
34,14:3
34,15:8
34,16:3
34,17:5
34,18:3
34,19:9
34,20:5
34,21:12
34,23:9
34,24:5
34,25:12
34,28:5
34,31:8
34,32:8
34,35:6
34,36:14
34,44:8
35,1:1
35,2:1
35,3:9
35,4:7
35,5:4
35,6:1
35,7:3
35,8:4
35,9:9
35,10:9
35,11:2
35,12:4
35,13:1
35,14:3
35,15:2
35,16:3
35,17:1
35,18:3
35,19:3
35,20:1
35,21:6
35,22:9
35,23:3
35,24:1
35,25:6
35,26:6
35,27:6
35,29:6
35,30:6
35,31:2
35,32:2
35,34:6
35,36:8
35,37:8
35,38:3
35,41:8
35,42:8
35,44:2
36,2:9
36,4:15
36,7:5
36,8:12
36,10:17
36,25:2
36,28:9
36,32:6
36,33:14
36,35:8
36,38:11
36,44:6
37,2:9
37,4:15
37,7:5
37,8:12
37,10:17
37,25:2
37,28:9
37,32:6
37,33:14
37,35:8
37,38:11
37,39:8
37,40:8
37,44:6
38,4:4
38,7:6
38,8:1
38,10:6
38,28:2
38,32:5
38,33:3
38,35:3
38,37:11
38,39:3
38,40:3
38,41:11
38,42:11
38,43:3
38,44:5
38,46:4
38,47:4
38,48:4
38,50:6
38,51:12
38,52:12
39,2:1
39,4:7
39,7:3
39,8:4
39,10:9
39,25:6
39,28:1
39,32:2
39,33:6
39,38:3
39,41:8
39,42:8
39,44:2
40,2:1
40,4:7
40,7:3
40,8:4
40,10:9
40,25:6
40,28:1
40,32:2
40,33:6
40,38:3
40,41:8
40,42:8
40,44:2
41,2:9
41,4:15
41,7:5
41,8:12
41,10:17
41,25:2
41,28:9
41,32:6
41,33:14
41,35:8
41,38:11
41,39:8
41,40:8
41,44:6
42,2:9
42,4:15
42,7:5
42,8:12
42,10:17
42,25:2
42,28:9
42,32:6
42,33:14
42,35:8
42,38:11
42,39:8
42,40:8
42,43:8
42,44:6
43,2:1
43,4:7
43,8:4
43,10:9
43,25:6
43,32:2
43,38:3
43,44:2
43,45:3
44,2:3
44,4:9
44,5:6
44,6:3
44,7:1
44,10:11
44,16:5
44,18:5
44,19:1
44,22:11
44,23:1
44,24:3
44,25:4
44,26:8
44,27:4
44,28:3
44,29:8
44,30:4
44,33:8
44,34:8
44,35:2
44,36:6
44,37:6
44,38:5
44,39:2
44,40:2
44,41:6
44,42:6
44,43:2
44,45:5
45,2:2
45,4:4
45,10:6
45,25:9
45,46:4
45,48:4
46,2:6
46,10:2
46,25:13
46,38:4
46,49:4
46,50:2
47,2:6
47,10:2
47,25:13
47,38:4
47,49:4
47,50:2
47,51:16
48,2:6
48,10:2
48,25:13
48,38:4
48,49:4
48,50:2
48,51:16
48,52:16
48,53:16
48,54:15
48,55:15
48,56:15
49,2:2
49,4:4
49,10:6
49,25:9
49,46:4
49,47:4
49,48:4
49,50:6
49,51:12
49,52:12
49,53:12
49,54:11
49,55:11
49,56:11
49,57:6
49,58:6
50,2:8
50,4:2
50,25:15
50,38:6
50,47:2
50,48:2
50,49:6
50,51:18
50,52:18
50,53:18
50,54:17
50,55:17
50,56:17
51,2:10
51,4:16
51,10:18
51,25:3
51,38:12
51,48:16
51,49:12
51,50:18
52,4:16
52,10:18
52,48:16
52,49:12
52,50:18
53,4:16
53,10:18
53,48:16
53,49:12
53,50:18
53,54:1
54,4:15
54,10:17
54,48:15
54,49:11
54,50:17
55,4:15
55,10:17
55,49:11
55,50:17
55,57:17
56,4:15
56,10:17
56,48:15
56,49:11
56,50:17
56,57:17
57,4:2
57,49:6
58,4:2

<setup times backward>
1,7:4
1,19:4
1,23:4
1,27:7
1,30:7
1,32:3
1,35:1
2,7:4
2,11:3
2,15:3
2,19:4
2,21:7
2,23:4
2,27:7
2,30:7
2,31:3
2,32:3
2,35:1
2,36:9
2,37:9
2,39:1
2,40:1
2,41:9
2,42:9
2,43:1
2,44:3
2,51:10
3,1:8
3,2:8
3,4:2
3,5:5
3,6:8
3,7:12
3,8:5
3,11:11
3,12:5
3,13:8
3,14:6
3,15:11
3,16:6
3,17:8
3,18:6
3,19:12
3,20:8
3,23:12
3,24:8
3,25:15
3,28:8
3,32:11
3,33:3
3,35:9
4,1:6
4,2:6
4,5:3
4,6:6
4,7:10
4,8:3
4,11:9
4,12:3
4,13:6
4,14:4
4,15:9
4,16:4
4,17:6
4,18:4
4,19:10
4,20:6
4,21:13
4,23:10
4,24:6
4,25:13
4,26:1
4,27:13
4,28:6
4,29:1
4,30:13
4,31:9
4,32:9
4,33:1
4,34:1
4,35:7
4,36:15
4,37:15
4,38:4
4,39:7
4,40:7
4,41:15
4,42:15
4,43:7
4,44:9
4,45:4
4,49:4
4,51:16
4,52:16
4,53:16
4,54:15
4,55:15
4,56:15
5,1:3
5,2:3
5,6:3
5,7:7
5,11:6
5,13:3
5,14:1
5,15:6
5,16:1
5,17:3
5,18:1
5,19:7
5,20:3
5,21:10
5,23:7
5,24:3
5,25:10
5,27:10
5,28:3
5,30:10
5,31:6
5,32:6
5,35:4
5,44:6
6,7:4
6,11:3
6,15:3
6,19:4
6,21:7
6,25:7
6,27:7
6,30:7
6,32:3
6,35:1
6,44:3
7,21:3
7,25:3
7,27:3
7,30:3
7,36:5
7,37:5
7,41:5
7,42:5
8,1:3
8,2:3
8,6:3
8,7:7
8,11:6
8,13:3
8,14:1
8,15:6
8,16:1
8,17:3
8,18:1
8,19:7
8,20:3
8,21:10
8,23:7
8,24:3
8,25:10
8,27:10
8,28:3
8,30:10
8,31:6
8,32:6
8,35:4
8,36:12
8,37:12
8,38:1
8,39:4
8,40:4
8,41:12
8,42:12
8,43:4
9,1:8
9,2:8
9,4:2
9,5:5
9,6:8
9,7:12
9,8:5
9,12:5
9,16:6
9,18:6
9,19:12
9,23:12
9,24:8
9,27:15
9,28:8
9,30:15
9,32:11
9,33:3
9,34:3
9,35:9
10,1:8
10,2:8
10,4:2
10,5:5
10,6:8
10,7:12
10,8:5
10,11:11
10,12:5
10,13:8
10,14:6
10,15:11
10,16:6
10,17:8
10,18:6
10,19:12
10,20:8
10,21:15
10,23:12
10,24:8
10,25:15
10,26:3
10,27:15
10,28:8
10,29:3
10,30:15
10,31:11
10,32:11
10,33:3
10,34:3
10,35:9
10,36:17
10,37:17
10,38:6
10,39:9
10,40:9
10,41:17
10,42:17
10,43:9
10,44:11
10,45:6
10,46:2
10,47:2
10,48:2
10,49:6
10,51:18
10,52:18
10,53:18
10,54:17
10,55:17
10,56:17
11,7:1
11,19:1
11,23:1
11,27:4
11,30:4
12,1:3
12,2:3
12,6:3
12,7:7
12,11:6
12,13:3
12,14:1
12,15:6
12,16:1
12,18:1
12,19:7
12,23:7
12,24:3
12,27:10
12,28:3
12,30:10
12,32:6
12,35:4
13,7:4
13,11:3
13,15:3
13,19:4
13,23:4
13,27:7
13,30:7
13,32:3
13,35:1
14,1:2
14,2:2
14,6:2
14,7:6
14,11:5
14,13:2
14,15:5
14,19:6
14,23:6
14,24:2
14,27:9
14,28:2
14,30:9
14,32:5
14,35:3
15,7:1
15,19:1
15,23:1
15,27:4
15,30:4
16,1:2
16,2:2
16,6:2
16,7:6
16,11:5
16,13:2
16,15:5
16,17:2
16,20:2
16,21:9
16,24:2
16,25:9
16,27:9
16,28:2
16,30:9
16,32:5
16,35:3
16,44:5
17,7:4
17,11:3
17,15:3
17,19:4
17,23:4
17,27:7
17,30:7
17,32:3
17,35:1
18,1:2
18,2:2
18,6:2
18,7:6
18,11:5
18,13:2
18,15:5
18,17:2
18,20:2
18,21:9
18,24:2
18,25:9
18,27:9
18,28:2
18,30:9
18,32:5
18,35:3
18,44:5
19,21:3
19,25:3
19,27:3
19,30:3
20,7:4
20,11:3
20,15:3
20,19:4
20,23:4
20,27:7
20,30:7
20,32:3
20,35:1
22,1:8
22,2:8
22,4:2
22,5:5
22,6:8
22,7:12
22,8:5
22,11:11
22,12:5
22,13:8
22,14:6
22,15:11
22,16:6
22,17:8
22,18:6
22,19:12
22,20:8
22,21:15
22,23:12
22,24:8
22,25:15
22,26:3
22,28:8
22,29:3
22,31:11
22,32:11
22,33:3
22,35:9
22,44:11
23,21:3
23,25:3
23,27:3
23,30:3
24,7:4
24,11:3
24,15:3
24,19:4
24,21:7
24,23:4
24,25:7
24,27:7
24,30:7
24,32:3
24,35:1
24,44:3
25,36:2
25,37:2
25,41:2
25,42:2
25,51:3
26,1:5
26,2:5
26,5:2
26,6:5
26,7:9
26,8:2
26,11:8
26,12:2
26,13:5
26,14:3
26,15:8
26,16:3
26,17:5
26,18:3
26,19:9
26,20:5
26,21:12
26,23:9
26,24:5
26,25:12
26,27:12
26,28:5
26,30:12
26,32:8
26,35:6
26,44:8
28,7:4
28,11:3
28,15:3
28,19:4
28,21:7
28,23:4
28,25:7
28,27:7
28,30:7
28,31:3
28,36:9
28,37:9
28,39:1
28,40:1
28,41:9
28,42:9
28,44:3
29,1:5
29,2:5
29,5:2
29,6:5
29,7:9
29,8:2
29,11:8
29,12:2
29,13:5
29,14:3
29,15:8
29,16:3
29,17:5
29,18:3
29,19:9
29,20:5
29,21:12
29,23:9
29,24:5
29,25:12
29,27:12
29,28:5
29,30:12
29,32:8
29,35:6
29,44:8
31,7:1
31,19:1
31,21:4
31,23:1
31,25:4
31,27:4
31,30:4
32,7:1
32,19:1
32,21:4
32,23:1
32,25:4
32,27:4
32,30:4
32,36:6
32,37:6
32,41:6
32,42:6
33,1:5
33,2:5
33,5:2
33,6:5
33,7:9
33,8:2
33,11:8
33,12:2
33,13:5
33,14:3
33,15:8
33,16:3
33,17:5
33,18:3
33,19:9
33,20:5
33,21:12
33,23:9
33,24:5
33,25:12
33,27:12
33,28:5
33,30:12
33,31:8
33,32:8
33,36:14
33,37:14
33,38:3
33,39:6
33,40:6
33,41:14
33,42:14
33,44:8
34,1:5
34,2:5
34,5:2
34,6:5
34,7:9
34,8:2
34,11:8
34,12:2
34,13:5
34,14:3
34,15:8
34,16:3
34,17:5
34,18:3
34,19:9
34,20:5
34,21:12
34,23:9
34,24:5
34,25:12
34,27:12
34,28:5
34,30:12
34,31:8
34,32:8
34,35:6
34,44:8
35,7:3
35,11:2
35,15:2
35,19:3
35,21:6
35,23:3
35,25:6
35,27:6
35,30:6
35,31:2
35,32:2
35,36:8
35,37:8
35,41:8
35,42:8
35,44:2
38,1:2
38,2:2
38,6:2
38,7:6
38,11:5
38,13:2
38,15:5
38,17:2
38,19:6
38,20:2
38,21:9
38,23:6
38,24:2
38,25:9
38,27:9
38,28:2
38,30:9
38,31:5
38,32:5
38,35:3
38,36:11
38,37:11
38,39:3
38,40:3
38,41:11
38,42:11
38,43:3
38,44:5
38,51:12
39,7:3
39,11:2
39,15:2
39,19:3
39,21:6
39,23:3
39,25:6
39,27:6
39,30:6
39,31:2
39,32:2
39,36:8
39,37:8
39,41:8
39,42:8
39,44:2
40,7:3
40,11:2
40,15:2
40,19:3
40,21:6
40,23:3
40,25:6
40,27:6
40,30:6
40,31:2
40,32:2
40,36:8
40,37:8
40,41:8
40,42:8
40,44:2
43,7:3
43,11:2
43,15:2
43,19:3
43,21:6
43,23:3
43,25:6
43,27:6
43,30:6
43,31:2
43,32:2
43,36:8
43,37:8
43,41:8
43,42:8
43,44:2
44,7:1
44,19:1
44,21:4
44,23:1
44,25:4
44,27:4
44,30:4
44,36:6
44,37:6
44,41:6
44,42:6
45,1:2
45,2:2
45,6:2
45,7:6
45,11:5
45,13:2
45,15:5
45,17:2
45,19:6
45,20:2
45,21:9
45,23:6
45,24:2
45,25:9
45,27:9
45,28:2
45,30:9
45,31:5
45,32:5
45,35:3
45,36:11
45,37:11
45,39:3
45,40:3
45,41:11
45,42:11
45,43:3
45,44:5
46,1:6
46,2:6
46,5:3
46,6:6
46,7:10
46,8:3
46,11:9
46,12:3
46,13:6
46,14:4
46,15:9
46,16:4
46,17:6
46,18:4
46,19:10
46,20:6
46,21:13
46,23:10
46,24:6
46,25:13
46,26:1
46,27:13
46,28:6
46,29:1
46,30:13
46,31:9
46,32:9
46,33:1
46,34:1
46,35:7
46,36:15
46,37:15
46,38:4
46,39:7
46,40:7
46,41:15
46,42:15
46,43:7
46,44:9
46,45:4
46,49:4
47,1:6
47,2:6
47,5:3
47,6:6
47,7:10
47,8:3
47,11:9
47,12:3
47,13:6
47,14:4
47,15:9
47,16:4
47,17:6
47,18:4
47,19:10
47,20:6
47,21:13
47,23:10
47,24:6
47,25:13
47,26:1
47,27:13
47,28:6
47,29:1
47,30:13
47,31:9
47,32:9
47,33:1
47,34:1
47,35:7
47,36:15
47,37:15
47,38:4
47,39:7
47,40:7
47,41:15
47,42:15
47,43:7
47,44:9
47,45:4
47,49:4
48,1:6
48,2:6
48,5:3
48,6:6
48,7:10
48,8:3
48,11:9
48,12:3
48,13:6
48,14:4
48,15:9
48,16:4
48,17:6
48,18:4
48,19:10
48,20:6
48,21:13
48,23:10
48,24:6
48,25:13
48,26:1
48,27:13
48,28:6
48,29:1
48,30:13
48,31:9
48,32:9
48,33:1
48,34:1
48,35:7
48,36:15
48,37:15
48,38:4
48,39:7
48,40:7
48,41:15
48,42:15
48,43:7
48,44:9
48,45:4
48,49:4
48,51:16
48,52:16
48,53:16
48,54:15
48,56:15
49,1:2
49,2:2
49,6:2
49,7:6
49,11:5
49,13:2
49,15:5
49,17:2
49,19:6
49,20:2
49,21:9
49,23:6
49,24:2
49,25:9
49,27:9
49,28:2
49,30:9
49,31:5
49,32:5
49,35:3
49,36:11
49,37:11
49,39:3
49,40:3
49,41:11
49,42:11
49,43:3
49,44:5
49,51:12
49,52:12
49,53:12
49,54:11
49,55:11
49,56:11
50,1:8
50,2:8
50,4:2
50,5:5
50,6:8
50,7:12
50,8:5
50,11:11
50,12:5
50,13:8
50,14:6
50,15:11
50,16:6
50,17:8
50,18:6
50,19:12
50,20:8
50,21:15
50,23:12
50,24:8
50,25:15
50,26:3
50,27:15
50,28:8
50,29:3
50,30:15
50,31:11
50,32:11
50,33:3
50,34:3
50,35:9
50,36:17
50,37:17
50,38:6
50,39:9
50,40:9
50,41:17
50,42:17
50,43:9
50,44:11
50,45:6
50,46:2
50,47:2
50,48:2
50,49:6
50,51:18
50,52:18
50,53:18
50,54:17
50,55:17
50,56:17
54,51:1
54,52:1
54,53:1
55,51:1
55,52:1
55,53:1
56,51:1
56,52:1
56,53:1
57,1:8
57,2:8
57,4:2
57,5:5
57,6:8
57,7:12
57,8:5
57,11:11
57,12:5
57,13:8
57,14:6
57,15:11
57,16:6
57,17:8
57,18:6
57,19:12
57,20:8
57,21:15
57,23:12
57,24:8
57,25:15
57,26:3
57,27:15
57,28:8
57,29:3
57,30:15
57,31:11
57,32:11
57,33:3
57,34:3
57,35:9
57,36:17
57,37:17
57,38:6
57,39:9
57,40:9
57,41:17
57,42:17
57,43:9
57,44:11
57,45:6
57,46:2
57,47:2
57,48:2
57,49:6
57,51:18
57,52:18
57,53:18
57,54:17
57,55:17
57,56:17
58,1:8
58,2:8
58,4:2
58,5:5
58,6:8
58,7:12
58,8:5
58,11:11
58,12:5
58,13:8
58,14:6
58,15:11
58,16:6
58,17:8
58,18:6
58,19:12
58,20:8
58,21:15
58,23:12
58,24:8
58,25:15
58,26:3
58,27:15
58,28:8
58,29:3
58,30:15
58,31:11
58,32:11
58,33:3
58,34:3
58,35:9
58,36:17
58,37:17
58,38:6
58,39:9
58,40:9
58,41:17
58,42:17
58,43:9
58,44:11
58,45:6
58,46:2
58,47:2
58,48:2
58,49:6
58,51:18
58,52:18
58,53:18
58,54:17
58,55:17
58,56:17

<end>

<optimal SALBP-1 value>
17


<rand seed>
467321153

<Lower Bounds>
Lm1=17
Lms1=17
Lm2=7
Lm3=12
Lm4=17
Best=17

<Optimal Stations (Iterations: 10)>
23
